param set_len = 18;
param target := 714570;
param values := [1] 98337 [2] 63546 [3] 7562 [4] 110693 [5] 120392 [6] 83912 [7] 48805 [8] 15222 [9] 38553 [10] 5113 [11] 48843 [12] 59402 [13] 8721 [14] 116151 [15] 43244 [16] 52212 [17] 125558 [18] 73945 ;
